c *********************************
c * Circuit generated by BenCGen
c *
c * Parity_433
c *
c * Ports with 1 gate(s): 1
c * Ports with 2 gate(s): 433
c * Total gates: 434
c *********************************
p cnf 867 1733
1 436 0
-1 -436 0
1 -435 0
436 -435 0
-1 -436 435 0
1 2 -437 0
-1 2 437 0
1 -2 437 0
-1 -2 -437 0
3 4 -438 0
-3 4 438 0
3 -4 438 0
-3 -4 -438 0
5 6 -439 0
-5 6 439 0
5 -6 439 0
-5 -6 -439 0
7 8 -440 0
-7 8 440 0
7 -8 440 0
-7 -8 -440 0
9 10 -441 0
-9 10 441 0
9 -10 441 0
-9 -10 -441 0
11 12 -442 0
-11 12 442 0
11 -12 442 0
-11 -12 -442 0
13 14 -443 0
-13 14 443 0
13 -14 443 0
-13 -14 -443 0
15 16 -444 0
-15 16 444 0
15 -16 444 0
-15 -16 -444 0
17 18 -445 0
-17 18 445 0
17 -18 445 0
-17 -18 -445 0
19 20 -446 0
-19 20 446 0
19 -20 446 0
-19 -20 -446 0
21 22 -447 0
-21 22 447 0
21 -22 447 0
-21 -22 -447 0
23 24 -448 0
-23 24 448 0
23 -24 448 0
-23 -24 -448 0
25 26 -449 0
-25 26 449 0
25 -26 449 0
-25 -26 -449 0
27 28 -450 0
-27 28 450 0
27 -28 450 0
-27 -28 -450 0
29 30 -451 0
-29 30 451 0
29 -30 451 0
-29 -30 -451 0
31 32 -452 0
-31 32 452 0
31 -32 452 0
-31 -32 -452 0
33 34 -453 0
-33 34 453 0
33 -34 453 0
-33 -34 -453 0
35 36 -454 0
-35 36 454 0
35 -36 454 0
-35 -36 -454 0
37 38 -455 0
-37 38 455 0
37 -38 455 0
-37 -38 -455 0
39 40 -456 0
-39 40 456 0
39 -40 456 0
-39 -40 -456 0
41 42 -457 0
-41 42 457 0
41 -42 457 0
-41 -42 -457 0
43 44 -458 0
-43 44 458 0
43 -44 458 0
-43 -44 -458 0
45 46 -459 0
-45 46 459 0
45 -46 459 0
-45 -46 -459 0
47 48 -460 0
-47 48 460 0
47 -48 460 0
-47 -48 -460 0
49 50 -461 0
-49 50 461 0
49 -50 461 0
-49 -50 -461 0
51 52 -462 0
-51 52 462 0
51 -52 462 0
-51 -52 -462 0
53 54 -463 0
-53 54 463 0
53 -54 463 0
-53 -54 -463 0
55 56 -464 0
-55 56 464 0
55 -56 464 0
-55 -56 -464 0
57 58 -465 0
-57 58 465 0
57 -58 465 0
-57 -58 -465 0
59 60 -466 0
-59 60 466 0
59 -60 466 0
-59 -60 -466 0
61 62 -467 0
-61 62 467 0
61 -62 467 0
-61 -62 -467 0
63 64 -468 0
-63 64 468 0
63 -64 468 0
-63 -64 -468 0
65 66 -469 0
-65 66 469 0
65 -66 469 0
-65 -66 -469 0
67 68 -470 0
-67 68 470 0
67 -68 470 0
-67 -68 -470 0
69 70 -471 0
-69 70 471 0
69 -70 471 0
-69 -70 -471 0
71 72 -472 0
-71 72 472 0
71 -72 472 0
-71 -72 -472 0
73 74 -473 0
-73 74 473 0
73 -74 473 0
-73 -74 -473 0
75 76 -474 0
-75 76 474 0
75 -76 474 0
-75 -76 -474 0
77 78 -475 0
-77 78 475 0
77 -78 475 0
-77 -78 -475 0
79 80 -476 0
-79 80 476 0
79 -80 476 0
-79 -80 -476 0
81 82 -477 0
-81 82 477 0
81 -82 477 0
-81 -82 -477 0
83 84 -478 0
-83 84 478 0
83 -84 478 0
-83 -84 -478 0
85 86 -479 0
-85 86 479 0
85 -86 479 0
-85 -86 -479 0
87 88 -480 0
-87 88 480 0
87 -88 480 0
-87 -88 -480 0
89 90 -481 0
-89 90 481 0
89 -90 481 0
-89 -90 -481 0
91 92 -482 0
-91 92 482 0
91 -92 482 0
-91 -92 -482 0
93 94 -483 0
-93 94 483 0
93 -94 483 0
-93 -94 -483 0
95 96 -484 0
-95 96 484 0
95 -96 484 0
-95 -96 -484 0
97 98 -485 0
-97 98 485 0
97 -98 485 0
-97 -98 -485 0
99 100 -486 0
-99 100 486 0
99 -100 486 0
-99 -100 -486 0
101 102 -487 0
-101 102 487 0
101 -102 487 0
-101 -102 -487 0
103 104 -488 0
-103 104 488 0
103 -104 488 0
-103 -104 -488 0
105 106 -489 0
-105 106 489 0
105 -106 489 0
-105 -106 -489 0
107 108 -490 0
-107 108 490 0
107 -108 490 0
-107 -108 -490 0
109 110 -491 0
-109 110 491 0
109 -110 491 0
-109 -110 -491 0
111 112 -492 0
-111 112 492 0
111 -112 492 0
-111 -112 -492 0
113 114 -493 0
-113 114 493 0
113 -114 493 0
-113 -114 -493 0
115 116 -494 0
-115 116 494 0
115 -116 494 0
-115 -116 -494 0
117 118 -495 0
-117 118 495 0
117 -118 495 0
-117 -118 -495 0
119 120 -496 0
-119 120 496 0
119 -120 496 0
-119 -120 -496 0
121 122 -497 0
-121 122 497 0
121 -122 497 0
-121 -122 -497 0
123 124 -498 0
-123 124 498 0
123 -124 498 0
-123 -124 -498 0
125 126 -499 0
-125 126 499 0
125 -126 499 0
-125 -126 -499 0
127 128 -500 0
-127 128 500 0
127 -128 500 0
-127 -128 -500 0
129 130 -501 0
-129 130 501 0
129 -130 501 0
-129 -130 -501 0
131 132 -502 0
-131 132 502 0
131 -132 502 0
-131 -132 -502 0
133 134 -503 0
-133 134 503 0
133 -134 503 0
-133 -134 -503 0
135 136 -504 0
-135 136 504 0
135 -136 504 0
-135 -136 -504 0
137 138 -505 0
-137 138 505 0
137 -138 505 0
-137 -138 -505 0
139 140 -506 0
-139 140 506 0
139 -140 506 0
-139 -140 -506 0
141 142 -507 0
-141 142 507 0
141 -142 507 0
-141 -142 -507 0
143 144 -508 0
-143 144 508 0
143 -144 508 0
-143 -144 -508 0
145 146 -509 0
-145 146 509 0
145 -146 509 0
-145 -146 -509 0
147 148 -510 0
-147 148 510 0
147 -148 510 0
-147 -148 -510 0
149 150 -511 0
-149 150 511 0
149 -150 511 0
-149 -150 -511 0
151 152 -512 0
-151 152 512 0
151 -152 512 0
-151 -152 -512 0
153 154 -513 0
-153 154 513 0
153 -154 513 0
-153 -154 -513 0
155 156 -514 0
-155 156 514 0
155 -156 514 0
-155 -156 -514 0
157 158 -515 0
-157 158 515 0
157 -158 515 0
-157 -158 -515 0
159 160 -516 0
-159 160 516 0
159 -160 516 0
-159 -160 -516 0
161 162 -517 0
-161 162 517 0
161 -162 517 0
-161 -162 -517 0
163 164 -518 0
-163 164 518 0
163 -164 518 0
-163 -164 -518 0
165 166 -519 0
-165 166 519 0
165 -166 519 0
-165 -166 -519 0
167 168 -520 0
-167 168 520 0
167 -168 520 0
-167 -168 -520 0
169 170 -521 0
-169 170 521 0
169 -170 521 0
-169 -170 -521 0
171 172 -522 0
-171 172 522 0
171 -172 522 0
-171 -172 -522 0
173 174 -523 0
-173 174 523 0
173 -174 523 0
-173 -174 -523 0
175 176 -524 0
-175 176 524 0
175 -176 524 0
-175 -176 -524 0
177 178 -525 0
-177 178 525 0
177 -178 525 0
-177 -178 -525 0
179 180 -526 0
-179 180 526 0
179 -180 526 0
-179 -180 -526 0
181 182 -527 0
-181 182 527 0
181 -182 527 0
-181 -182 -527 0
183 184 -528 0
-183 184 528 0
183 -184 528 0
-183 -184 -528 0
185 186 -529 0
-185 186 529 0
185 -186 529 0
-185 -186 -529 0
187 188 -530 0
-187 188 530 0
187 -188 530 0
-187 -188 -530 0
189 190 -531 0
-189 190 531 0
189 -190 531 0
-189 -190 -531 0
191 192 -532 0
-191 192 532 0
191 -192 532 0
-191 -192 -532 0
193 194 -533 0
-193 194 533 0
193 -194 533 0
-193 -194 -533 0
195 196 -534 0
-195 196 534 0
195 -196 534 0
-195 -196 -534 0
197 198 -535 0
-197 198 535 0
197 -198 535 0
-197 -198 -535 0
199 200 -536 0
-199 200 536 0
199 -200 536 0
-199 -200 -536 0
201 202 -537 0
-201 202 537 0
201 -202 537 0
-201 -202 -537 0
203 204 -538 0
-203 204 538 0
203 -204 538 0
-203 -204 -538 0
205 206 -539 0
-205 206 539 0
205 -206 539 0
-205 -206 -539 0
207 208 -540 0
-207 208 540 0
207 -208 540 0
-207 -208 -540 0
209 210 -541 0
-209 210 541 0
209 -210 541 0
-209 -210 -541 0
211 212 -542 0
-211 212 542 0
211 -212 542 0
-211 -212 -542 0
213 214 -543 0
-213 214 543 0
213 -214 543 0
-213 -214 -543 0
215 216 -544 0
-215 216 544 0
215 -216 544 0
-215 -216 -544 0
217 218 -545 0
-217 218 545 0
217 -218 545 0
-217 -218 -545 0
219 220 -546 0
-219 220 546 0
219 -220 546 0
-219 -220 -546 0
221 222 -547 0
-221 222 547 0
221 -222 547 0
-221 -222 -547 0
223 224 -548 0
-223 224 548 0
223 -224 548 0
-223 -224 -548 0
225 226 -549 0
-225 226 549 0
225 -226 549 0
-225 -226 -549 0
227 228 -550 0
-227 228 550 0
227 -228 550 0
-227 -228 -550 0
229 230 -551 0
-229 230 551 0
229 -230 551 0
-229 -230 -551 0
231 232 -552 0
-231 232 552 0
231 -232 552 0
-231 -232 -552 0
233 234 -553 0
-233 234 553 0
233 -234 553 0
-233 -234 -553 0
235 236 -554 0
-235 236 554 0
235 -236 554 0
-235 -236 -554 0
237 238 -555 0
-237 238 555 0
237 -238 555 0
-237 -238 -555 0
239 240 -556 0
-239 240 556 0
239 -240 556 0
-239 -240 -556 0
241 242 -557 0
-241 242 557 0
241 -242 557 0
-241 -242 -557 0
243 244 -558 0
-243 244 558 0
243 -244 558 0
-243 -244 -558 0
245 246 -559 0
-245 246 559 0
245 -246 559 0
-245 -246 -559 0
247 248 -560 0
-247 248 560 0
247 -248 560 0
-247 -248 -560 0
249 250 -561 0
-249 250 561 0
249 -250 561 0
-249 -250 -561 0
251 252 -562 0
-251 252 562 0
251 -252 562 0
-251 -252 -562 0
253 254 -563 0
-253 254 563 0
253 -254 563 0
-253 -254 -563 0
255 256 -564 0
-255 256 564 0
255 -256 564 0
-255 -256 -564 0
257 258 -565 0
-257 258 565 0
257 -258 565 0
-257 -258 -565 0
259 260 -566 0
-259 260 566 0
259 -260 566 0
-259 -260 -566 0
261 262 -567 0
-261 262 567 0
261 -262 567 0
-261 -262 -567 0
263 264 -568 0
-263 264 568 0
263 -264 568 0
-263 -264 -568 0
265 266 -569 0
-265 266 569 0
265 -266 569 0
-265 -266 -569 0
267 268 -570 0
-267 268 570 0
267 -268 570 0
-267 -268 -570 0
269 270 -571 0
-269 270 571 0
269 -270 571 0
-269 -270 -571 0
271 272 -572 0
-271 272 572 0
271 -272 572 0
-271 -272 -572 0
273 274 -573 0
-273 274 573 0
273 -274 573 0
-273 -274 -573 0
275 276 -574 0
-275 276 574 0
275 -276 574 0
-275 -276 -574 0
277 278 -575 0
-277 278 575 0
277 -278 575 0
-277 -278 -575 0
279 280 -576 0
-279 280 576 0
279 -280 576 0
-279 -280 -576 0
281 282 -577 0
-281 282 577 0
281 -282 577 0
-281 -282 -577 0
283 284 -578 0
-283 284 578 0
283 -284 578 0
-283 -284 -578 0
285 286 -579 0
-285 286 579 0
285 -286 579 0
-285 -286 -579 0
287 288 -580 0
-287 288 580 0
287 -288 580 0
-287 -288 -580 0
289 290 -581 0
-289 290 581 0
289 -290 581 0
-289 -290 -581 0
291 292 -582 0
-291 292 582 0
291 -292 582 0
-291 -292 -582 0
293 294 -583 0
-293 294 583 0
293 -294 583 0
-293 -294 -583 0
295 296 -584 0
-295 296 584 0
295 -296 584 0
-295 -296 -584 0
297 298 -585 0
-297 298 585 0
297 -298 585 0
-297 -298 -585 0
299 300 -586 0
-299 300 586 0
299 -300 586 0
-299 -300 -586 0
301 302 -587 0
-301 302 587 0
301 -302 587 0
-301 -302 -587 0
303 304 -588 0
-303 304 588 0
303 -304 588 0
-303 -304 -588 0
305 306 -589 0
-305 306 589 0
305 -306 589 0
-305 -306 -589 0
307 308 -590 0
-307 308 590 0
307 -308 590 0
-307 -308 -590 0
309 310 -591 0
-309 310 591 0
309 -310 591 0
-309 -310 -591 0
311 312 -592 0
-311 312 592 0
311 -312 592 0
-311 -312 -592 0
313 314 -593 0
-313 314 593 0
313 -314 593 0
-313 -314 -593 0
315 316 -594 0
-315 316 594 0
315 -316 594 0
-315 -316 -594 0
317 318 -595 0
-317 318 595 0
317 -318 595 0
-317 -318 -595 0
319 320 -596 0
-319 320 596 0
319 -320 596 0
-319 -320 -596 0
321 322 -597 0
-321 322 597 0
321 -322 597 0
-321 -322 -597 0
323 324 -598 0
-323 324 598 0
323 -324 598 0
-323 -324 -598 0
325 326 -599 0
-325 326 599 0
325 -326 599 0
-325 -326 -599 0
327 328 -600 0
-327 328 600 0
327 -328 600 0
-327 -328 -600 0
329 330 -601 0
-329 330 601 0
329 -330 601 0
-329 -330 -601 0
331 332 -602 0
-331 332 602 0
331 -332 602 0
-331 -332 -602 0
333 334 -603 0
-333 334 603 0
333 -334 603 0
-333 -334 -603 0
335 336 -604 0
-335 336 604 0
335 -336 604 0
-335 -336 -604 0
337 338 -605 0
-337 338 605 0
337 -338 605 0
-337 -338 -605 0
339 340 -606 0
-339 340 606 0
339 -340 606 0
-339 -340 -606 0
341 342 -607 0
-341 342 607 0
341 -342 607 0
-341 -342 -607 0
343 344 -608 0
-343 344 608 0
343 -344 608 0
-343 -344 -608 0
345 346 -609 0
-345 346 609 0
345 -346 609 0
-345 -346 -609 0
347 348 -610 0
-347 348 610 0
347 -348 610 0
-347 -348 -610 0
349 350 -611 0
-349 350 611 0
349 -350 611 0
-349 -350 -611 0
351 352 -612 0
-351 352 612 0
351 -352 612 0
-351 -352 -612 0
353 354 -613 0
-353 354 613 0
353 -354 613 0
-353 -354 -613 0
355 356 -614 0
-355 356 614 0
355 -356 614 0
-355 -356 -614 0
357 358 -615 0
-357 358 615 0
357 -358 615 0
-357 -358 -615 0
359 360 -616 0
-359 360 616 0
359 -360 616 0
-359 -360 -616 0
361 362 -617 0
-361 362 617 0
361 -362 617 0
-361 -362 -617 0
363 364 -618 0
-363 364 618 0
363 -364 618 0
-363 -364 -618 0
365 366 -619 0
-365 366 619 0
365 -366 619 0
-365 -366 -619 0
367 368 -620 0
-367 368 620 0
367 -368 620 0
-367 -368 -620 0
369 370 -621 0
-369 370 621 0
369 -370 621 0
-369 -370 -621 0
371 372 -622 0
-371 372 622 0
371 -372 622 0
-371 -372 -622 0
373 374 -623 0
-373 374 623 0
373 -374 623 0
-373 -374 -623 0
375 376 -624 0
-375 376 624 0
375 -376 624 0
-375 -376 -624 0
377 378 -625 0
-377 378 625 0
377 -378 625 0
-377 -378 -625 0
379 380 -626 0
-379 380 626 0
379 -380 626 0
-379 -380 -626 0
381 382 -627 0
-381 382 627 0
381 -382 627 0
-381 -382 -627 0
383 384 -628 0
-383 384 628 0
383 -384 628 0
-383 -384 -628 0
385 386 -629 0
-385 386 629 0
385 -386 629 0
-385 -386 -629 0
387 388 -630 0
-387 388 630 0
387 -388 630 0
-387 -388 -630 0
389 390 -631 0
-389 390 631 0
389 -390 631 0
-389 -390 -631 0
391 392 -632 0
-391 392 632 0
391 -392 632 0
-391 -392 -632 0
393 394 -633 0
-393 394 633 0
393 -394 633 0
-393 -394 -633 0
395 396 -634 0
-395 396 634 0
395 -396 634 0
-395 -396 -634 0
397 398 -635 0
-397 398 635 0
397 -398 635 0
-397 -398 -635 0
399 400 -636 0
-399 400 636 0
399 -400 636 0
-399 -400 -636 0
401 402 -637 0
-401 402 637 0
401 -402 637 0
-401 -402 -637 0
403 404 -638 0
-403 404 638 0
403 -404 638 0
-403 -404 -638 0
405 406 -639 0
-405 406 639 0
405 -406 639 0
-405 -406 -639 0
407 408 -640 0
-407 408 640 0
407 -408 640 0
-407 -408 -640 0
409 410 -641 0
-409 410 641 0
409 -410 641 0
-409 -410 -641 0
411 412 -642 0
-411 412 642 0
411 -412 642 0
-411 -412 -642 0
413 414 -643 0
-413 414 643 0
413 -414 643 0
-413 -414 -643 0
415 416 -644 0
-415 416 644 0
415 -416 644 0
-415 -416 -644 0
417 418 -645 0
-417 418 645 0
417 -418 645 0
-417 -418 -645 0
419 420 -646 0
-419 420 646 0
419 -420 646 0
-419 -420 -646 0
421 422 -647 0
-421 422 647 0
421 -422 647 0
-421 -422 -647 0
423 424 -648 0
-423 424 648 0
423 -424 648 0
-423 -424 -648 0
425 426 -649 0
-425 426 649 0
425 -426 649 0
-425 -426 -649 0
427 428 -650 0
-427 428 650 0
427 -428 650 0
-427 -428 -650 0
429 430 -651 0
-429 430 651 0
429 -430 651 0
-429 -430 -651 0
431 432 -652 0
-431 432 652 0
431 -432 652 0
-431 -432 -652 0
437 438 -653 0
-437 438 653 0
437 -438 653 0
-437 -438 -653 0
439 440 -654 0
-439 440 654 0
439 -440 654 0
-439 -440 -654 0
441 442 -655 0
-441 442 655 0
441 -442 655 0
-441 -442 -655 0
443 444 -656 0
-443 444 656 0
443 -444 656 0
-443 -444 -656 0
445 446 -657 0
-445 446 657 0
445 -446 657 0
-445 -446 -657 0
447 448 -658 0
-447 448 658 0
447 -448 658 0
-447 -448 -658 0
449 450 -659 0
-449 450 659 0
449 -450 659 0
-449 -450 -659 0
451 452 -660 0
-451 452 660 0
451 -452 660 0
-451 -452 -660 0
453 454 -661 0
-453 454 661 0
453 -454 661 0
-453 -454 -661 0
455 456 -662 0
-455 456 662 0
455 -456 662 0
-455 -456 -662 0
457 458 -663 0
-457 458 663 0
457 -458 663 0
-457 -458 -663 0
459 460 -664 0
-459 460 664 0
459 -460 664 0
-459 -460 -664 0
461 462 -665 0
-461 462 665 0
461 -462 665 0
-461 -462 -665 0
463 464 -666 0
-463 464 666 0
463 -464 666 0
-463 -464 -666 0
465 466 -667 0
-465 466 667 0
465 -466 667 0
-465 -466 -667 0
467 468 -668 0
-467 468 668 0
467 -468 668 0
-467 -468 -668 0
469 470 -669 0
-469 470 669 0
469 -470 669 0
-469 -470 -669 0
471 472 -670 0
-471 472 670 0
471 -472 670 0
-471 -472 -670 0
473 474 -671 0
-473 474 671 0
473 -474 671 0
-473 -474 -671 0
475 476 -672 0
-475 476 672 0
475 -476 672 0
-475 -476 -672 0
477 478 -673 0
-477 478 673 0
477 -478 673 0
-477 -478 -673 0
479 480 -674 0
-479 480 674 0
479 -480 674 0
-479 -480 -674 0
481 482 -675 0
-481 482 675 0
481 -482 675 0
-481 -482 -675 0
483 484 -676 0
-483 484 676 0
483 -484 676 0
-483 -484 -676 0
485 486 -677 0
-485 486 677 0
485 -486 677 0
-485 -486 -677 0
487 488 -678 0
-487 488 678 0
487 -488 678 0
-487 -488 -678 0
489 490 -679 0
-489 490 679 0
489 -490 679 0
-489 -490 -679 0
491 492 -680 0
-491 492 680 0
491 -492 680 0
-491 -492 -680 0
493 494 -681 0
-493 494 681 0
493 -494 681 0
-493 -494 -681 0
495 496 -682 0
-495 496 682 0
495 -496 682 0
-495 -496 -682 0
497 498 -683 0
-497 498 683 0
497 -498 683 0
-497 -498 -683 0
499 500 -684 0
-499 500 684 0
499 -500 684 0
-499 -500 -684 0
501 502 -685 0
-501 502 685 0
501 -502 685 0
-501 -502 -685 0
503 504 -686 0
-503 504 686 0
503 -504 686 0
-503 -504 -686 0
505 506 -687 0
-505 506 687 0
505 -506 687 0
-505 -506 -687 0
507 508 -688 0
-507 508 688 0
507 -508 688 0
-507 -508 -688 0
509 510 -689 0
-509 510 689 0
509 -510 689 0
-509 -510 -689 0
511 512 -690 0
-511 512 690 0
511 -512 690 0
-511 -512 -690 0
513 514 -691 0
-513 514 691 0
513 -514 691 0
-513 -514 -691 0
515 516 -692 0
-515 516 692 0
515 -516 692 0
-515 -516 -692 0
517 518 -693 0
-517 518 693 0
517 -518 693 0
-517 -518 -693 0
519 520 -694 0
-519 520 694 0
519 -520 694 0
-519 -520 -694 0
521 522 -695 0
-521 522 695 0
521 -522 695 0
-521 -522 -695 0
523 524 -696 0
-523 524 696 0
523 -524 696 0
-523 -524 -696 0
525 526 -697 0
-525 526 697 0
525 -526 697 0
-525 -526 -697 0
527 528 -698 0
-527 528 698 0
527 -528 698 0
-527 -528 -698 0
529 530 -699 0
-529 530 699 0
529 -530 699 0
-529 -530 -699 0
531 532 -700 0
-531 532 700 0
531 -532 700 0
-531 -532 -700 0
533 534 -701 0
-533 534 701 0
533 -534 701 0
-533 -534 -701 0
535 536 -702 0
-535 536 702 0
535 -536 702 0
-535 -536 -702 0
537 538 -703 0
-537 538 703 0
537 -538 703 0
-537 -538 -703 0
539 540 -704 0
-539 540 704 0
539 -540 704 0
-539 -540 -704 0
541 542 -705 0
-541 542 705 0
541 -542 705 0
-541 -542 -705 0
543 544 -706 0
-543 544 706 0
543 -544 706 0
-543 -544 -706 0
545 546 -707 0
-545 546 707 0
545 -546 707 0
-545 -546 -707 0
547 548 -708 0
-547 548 708 0
547 -548 708 0
-547 -548 -708 0
549 550 -709 0
-549 550 709 0
549 -550 709 0
-549 -550 -709 0
551 552 -710 0
-551 552 710 0
551 -552 710 0
-551 -552 -710 0
553 554 -711 0
-553 554 711 0
553 -554 711 0
-553 -554 -711 0
555 556 -712 0
-555 556 712 0
555 -556 712 0
-555 -556 -712 0
557 558 -713 0
-557 558 713 0
557 -558 713 0
-557 -558 -713 0
559 560 -714 0
-559 560 714 0
559 -560 714 0
-559 -560 -714 0
561 562 -715 0
-561 562 715 0
561 -562 715 0
-561 -562 -715 0
563 564 -716 0
-563 564 716 0
563 -564 716 0
-563 -564 -716 0
565 566 -717 0
-565 566 717 0
565 -566 717 0
-565 -566 -717 0
567 568 -718 0
-567 568 718 0
567 -568 718 0
-567 -568 -718 0
569 570 -719 0
-569 570 719 0
569 -570 719 0
-569 -570 -719 0
571 572 -720 0
-571 572 720 0
571 -572 720 0
-571 -572 -720 0
573 574 -721 0
-573 574 721 0
573 -574 721 0
-573 -574 -721 0
575 576 -722 0
-575 576 722 0
575 -576 722 0
-575 -576 -722 0
577 578 -723 0
-577 578 723 0
577 -578 723 0
-577 -578 -723 0
579 580 -724 0
-579 580 724 0
579 -580 724 0
-579 -580 -724 0
581 582 -725 0
-581 582 725 0
581 -582 725 0
-581 -582 -725 0
583 584 -726 0
-583 584 726 0
583 -584 726 0
-583 -584 -726 0
585 586 -727 0
-585 586 727 0
585 -586 727 0
-585 -586 -727 0
587 588 -728 0
-587 588 728 0
587 -588 728 0
-587 -588 -728 0
589 590 -729 0
-589 590 729 0
589 -590 729 0
-589 -590 -729 0
591 592 -730 0
-591 592 730 0
591 -592 730 0
-591 -592 -730 0
593 594 -731 0
-593 594 731 0
593 -594 731 0
-593 -594 -731 0
595 596 -732 0
-595 596 732 0
595 -596 732 0
-595 -596 -732 0
597 598 -733 0
-597 598 733 0
597 -598 733 0
-597 -598 -733 0
599 600 -734 0
-599 600 734 0
599 -600 734 0
-599 -600 -734 0
601 602 -735 0
-601 602 735 0
601 -602 735 0
-601 -602 -735 0
603 604 -736 0
-603 604 736 0
603 -604 736 0
-603 -604 -736 0
605 606 -737 0
-605 606 737 0
605 -606 737 0
-605 -606 -737 0
607 608 -738 0
-607 608 738 0
607 -608 738 0
-607 -608 -738 0
609 610 -739 0
-609 610 739 0
609 -610 739 0
-609 -610 -739 0
611 612 -740 0
-611 612 740 0
611 -612 740 0
-611 -612 -740 0
613 614 -741 0
-613 614 741 0
613 -614 741 0
-613 -614 -741 0
615 616 -742 0
-615 616 742 0
615 -616 742 0
-615 -616 -742 0
617 618 -743 0
-617 618 743 0
617 -618 743 0
-617 -618 -743 0
619 620 -744 0
-619 620 744 0
619 -620 744 0
-619 -620 -744 0
621 622 -745 0
-621 622 745 0
621 -622 745 0
-621 -622 -745 0
623 624 -746 0
-623 624 746 0
623 -624 746 0
-623 -624 -746 0
625 626 -747 0
-625 626 747 0
625 -626 747 0
-625 -626 -747 0
627 628 -748 0
-627 628 748 0
627 -628 748 0
-627 -628 -748 0
629 630 -749 0
-629 630 749 0
629 -630 749 0
-629 -630 -749 0
631 632 -750 0
-631 632 750 0
631 -632 750 0
-631 -632 -750 0
633 634 -751 0
-633 634 751 0
633 -634 751 0
-633 -634 -751 0
635 636 -752 0
-635 636 752 0
635 -636 752 0
-635 -636 -752 0
637 638 -753 0
-637 638 753 0
637 -638 753 0
-637 -638 -753 0
639 640 -754 0
-639 640 754 0
639 -640 754 0
-639 -640 -754 0
641 642 -755 0
-641 642 755 0
641 -642 755 0
-641 -642 -755 0
643 644 -756 0
-643 644 756 0
643 -644 756 0
-643 -644 -756 0
645 646 -757 0
-645 646 757 0
645 -646 757 0
-645 -646 -757 0
647 648 -758 0
-647 648 758 0
647 -648 758 0
-647 -648 -758 0
649 650 -759 0
-649 650 759 0
649 -650 759 0
-649 -650 -759 0
651 652 -760 0
-651 652 760 0
651 -652 760 0
-651 -652 -760 0
653 654 -761 0
-653 654 761 0
653 -654 761 0
-653 -654 -761 0
655 656 -762 0
-655 656 762 0
655 -656 762 0
-655 -656 -762 0
657 658 -763 0
-657 658 763 0
657 -658 763 0
-657 -658 -763 0
659 660 -764 0
-659 660 764 0
659 -660 764 0
-659 -660 -764 0
661 662 -765 0
-661 662 765 0
661 -662 765 0
-661 -662 -765 0
663 664 -766 0
-663 664 766 0
663 -664 766 0
-663 -664 -766 0
665 666 -767 0
-665 666 767 0
665 -666 767 0
-665 -666 -767 0
667 668 -768 0
-667 668 768 0
667 -668 768 0
-667 -668 -768 0
669 670 -769 0
-669 670 769 0
669 -670 769 0
-669 -670 -769 0
671 672 -770 0
-671 672 770 0
671 -672 770 0
-671 -672 -770 0
673 674 -771 0
-673 674 771 0
673 -674 771 0
-673 -674 -771 0
675 676 -772 0
-675 676 772 0
675 -676 772 0
-675 -676 -772 0
677 678 -773 0
-677 678 773 0
677 -678 773 0
-677 -678 -773 0
679 680 -774 0
-679 680 774 0
679 -680 774 0
-679 -680 -774 0
681 682 -775 0
-681 682 775 0
681 -682 775 0
-681 -682 -775 0
683 684 -776 0
-683 684 776 0
683 -684 776 0
-683 -684 -776 0
685 686 -777 0
-685 686 777 0
685 -686 777 0
-685 -686 -777 0
687 688 -778 0
-687 688 778 0
687 -688 778 0
-687 -688 -778 0
689 690 -779 0
-689 690 779 0
689 -690 779 0
-689 -690 -779 0
691 692 -780 0
-691 692 780 0
691 -692 780 0
-691 -692 -780 0
693 694 -781 0
-693 694 781 0
693 -694 781 0
-693 -694 -781 0
695 696 -782 0
-695 696 782 0
695 -696 782 0
-695 -696 -782 0
697 698 -783 0
-697 698 783 0
697 -698 783 0
-697 -698 -783 0
699 700 -784 0
-699 700 784 0
699 -700 784 0
-699 -700 -784 0
701 702 -785 0
-701 702 785 0
701 -702 785 0
-701 -702 -785 0
703 704 -786 0
-703 704 786 0
703 -704 786 0
-703 -704 -786 0
705 706 -787 0
-705 706 787 0
705 -706 787 0
-705 -706 -787 0
707 708 -788 0
-707 708 788 0
707 -708 788 0
-707 -708 -788 0
709 710 -789 0
-709 710 789 0
709 -710 789 0
-709 -710 -789 0
711 712 -790 0
-711 712 790 0
711 -712 790 0
-711 -712 -790 0
713 714 -791 0
-713 714 791 0
713 -714 791 0
-713 -714 -791 0
715 716 -792 0
-715 716 792 0
715 -716 792 0
-715 -716 -792 0
717 718 -793 0
-717 718 793 0
717 -718 793 0
-717 -718 -793 0
719 720 -794 0
-719 720 794 0
719 -720 794 0
-719 -720 -794 0
721 722 -795 0
-721 722 795 0
721 -722 795 0
-721 -722 -795 0
723 724 -796 0
-723 724 796 0
723 -724 796 0
-723 -724 -796 0
725 726 -797 0
-725 726 797 0
725 -726 797 0
-725 -726 -797 0
727 728 -798 0
-727 728 798 0
727 -728 798 0
-727 -728 -798 0
729 730 -799 0
-729 730 799 0
729 -730 799 0
-729 -730 -799 0
731 732 -800 0
-731 732 800 0
731 -732 800 0
-731 -732 -800 0
733 734 -801 0
-733 734 801 0
733 -734 801 0
-733 -734 -801 0
735 736 -802 0
-735 736 802 0
735 -736 802 0
-735 -736 -802 0
737 738 -803 0
-737 738 803 0
737 -738 803 0
-737 -738 -803 0
739 740 -804 0
-739 740 804 0
739 -740 804 0
-739 -740 -804 0
741 742 -805 0
-741 742 805 0
741 -742 805 0
-741 -742 -805 0
743 744 -806 0
-743 744 806 0
743 -744 806 0
-743 -744 -806 0
745 746 -807 0
-745 746 807 0
745 -746 807 0
-745 -746 -807 0
747 748 -808 0
-747 748 808 0
747 -748 808 0
-747 -748 -808 0
749 750 -809 0
-749 750 809 0
749 -750 809 0
-749 -750 -809 0
751 752 -810 0
-751 752 810 0
751 -752 810 0
-751 -752 -810 0
753 754 -811 0
-753 754 811 0
753 -754 811 0
-753 -754 -811 0
755 756 -812 0
-755 756 812 0
755 -756 812 0
-755 -756 -812 0
757 758 -813 0
-757 758 813 0
757 -758 813 0
-757 -758 -813 0
759 760 -814 0
-759 760 814 0
759 -760 814 0
-759 -760 -814 0
761 762 -815 0
-761 762 815 0
761 -762 815 0
-761 -762 -815 0
763 764 -816 0
-763 764 816 0
763 -764 816 0
-763 -764 -816 0
765 766 -817 0
-765 766 817 0
765 -766 817 0
-765 -766 -817 0
767 768 -818 0
-767 768 818 0
767 -768 818 0
-767 -768 -818 0
769 770 -819 0
-769 770 819 0
769 -770 819 0
-769 -770 -819 0
771 772 -820 0
-771 772 820 0
771 -772 820 0
-771 -772 -820 0
773 774 -821 0
-773 774 821 0
773 -774 821 0
-773 -774 -821 0
775 776 -822 0
-775 776 822 0
775 -776 822 0
-775 -776 -822 0
777 778 -823 0
-777 778 823 0
777 -778 823 0
-777 -778 -823 0
779 780 -824 0
-779 780 824 0
779 -780 824 0
-779 -780 -824 0
781 782 -825 0
-781 782 825 0
781 -782 825 0
-781 -782 -825 0
783 784 -826 0
-783 784 826 0
783 -784 826 0
-783 -784 -826 0
785 786 -827 0
-785 786 827 0
785 -786 827 0
-785 -786 -827 0
787 788 -828 0
-787 788 828 0
787 -788 828 0
-787 -788 -828 0
789 790 -829 0
-789 790 829 0
789 -790 829 0
-789 -790 -829 0
791 792 -830 0
-791 792 830 0
791 -792 830 0
-791 -792 -830 0
793 794 -831 0
-793 794 831 0
793 -794 831 0
-793 -794 -831 0
795 796 -832 0
-795 796 832 0
795 -796 832 0
-795 -796 -832 0
797 798 -833 0
-797 798 833 0
797 -798 833 0
-797 -798 -833 0
799 800 -834 0
-799 800 834 0
799 -800 834 0
-799 -800 -834 0
801 802 -835 0
-801 802 835 0
801 -802 835 0
-801 -802 -835 0
803 804 -836 0
-803 804 836 0
803 -804 836 0
-803 -804 -836 0
805 806 -837 0
-805 806 837 0
805 -806 837 0
-805 -806 -837 0
807 808 -838 0
-807 808 838 0
807 -808 838 0
-807 -808 -838 0
809 810 -839 0
-809 810 839 0
809 -810 839 0
-809 -810 -839 0
811 812 -840 0
-811 812 840 0
811 -812 840 0
-811 -812 -840 0
813 814 -841 0
-813 814 841 0
813 -814 841 0
-813 -814 -841 0
815 816 -842 0
-815 816 842 0
815 -816 842 0
-815 -816 -842 0
817 818 -843 0
-817 818 843 0
817 -818 843 0
-817 -818 -843 0
819 820 -844 0
-819 820 844 0
819 -820 844 0
-819 -820 -844 0
821 822 -845 0
-821 822 845 0
821 -822 845 0
-821 -822 -845 0
823 824 -846 0
-823 824 846 0
823 -824 846 0
-823 -824 -846 0
825 826 -847 0
-825 826 847 0
825 -826 847 0
-825 -826 -847 0
827 828 -848 0
-827 828 848 0
827 -828 848 0
-827 -828 -848 0
829 830 -849 0
-829 830 849 0
829 -830 849 0
-829 -830 -849 0
831 832 -850 0
-831 832 850 0
831 -832 850 0
-831 -832 -850 0
833 834 -851 0
-833 834 851 0
833 -834 851 0
-833 -834 -851 0
835 836 -852 0
-835 836 852 0
835 -836 852 0
-835 -836 -852 0
837 838 -853 0
-837 838 853 0
837 -838 853 0
-837 -838 -853 0
839 840 -854 0
-839 840 854 0
839 -840 854 0
-839 -840 -854 0
841 433 -855 0
-841 433 855 0
841 -433 855 0
-841 -433 -855 0
842 843 -856 0
-842 843 856 0
842 -843 856 0
-842 -843 -856 0
844 845 -857 0
-844 845 857 0
844 -845 857 0
-844 -845 -857 0
846 847 -858 0
-846 847 858 0
846 -847 858 0
-846 -847 -858 0
848 849 -859 0
-848 849 859 0
848 -849 859 0
-848 -849 -859 0
850 851 -860 0
-850 851 860 0
850 -851 860 0
-850 -851 -860 0
852 853 -861 0
-852 853 861 0
852 -853 861 0
-852 -853 -861 0
854 855 -862 0
-854 855 862 0
854 -855 862 0
-854 -855 -862 0
856 857 -863 0
-856 857 863 0
856 -857 863 0
-856 -857 -863 0
858 859 -864 0
-858 859 864 0
858 -859 864 0
-858 -859 -864 0
860 861 -865 0
-860 861 865 0
860 -861 865 0
-860 -861 -865 0
863 864 -866 0
-863 864 866 0
863 -864 866 0
-863 -864 -866 0
865 862 -867 0
-865 862 867 0
865 -862 867 0
-865 -862 -867 0
866 867 -434 0
-866 867 434 0
866 -867 434 0
-866 -867 -434 0
